c This is QMaxSAT 2017 based on 14.07
c This is Glucose 3.0
c This is MiniSat 2.2.0
c WARNING: for repeatability, setting FPU to use double precision
c card = mrwto, comp = 0, pmodel = 0, narr = 4, mct = 24, verb = 0
cr firstCPXsol 0 0 0
c top = 81479
c |  Number of variables:    1458                                             |
c |  Number of clauses:      33289                                            |
c |  Weight of hard clauses: 81479                                            |
c |  Number of soft clauses: 2760                                             |
c |  Number of unit soft clauses: 0                                           |
c |  Maximum Cardinality (by unit): 430240       (0           )               |
c last restart ## conflicts  :  258 335 
o 2488 | cpuTime 0.018731 s
c Sum of weights = 107560
c A number of soft clauses remained = 690
c MRWTO encoding for Pseudo-Boolean Constraints
c sizeMax=2488
c No.0 Divisor=14	generated by pow1
c No.1 Divisor=14	generated by pow1
c No.2 Divisor=14	generated by pow1
c p0= 14	p1= 14	p2= 14	
c number of digits = 4
c linkingVar[0].size = 14, linkingVar[1].size = 14, linkingVar[2].size = 13, linkingVar[3].size = 1, 
c Pseudo-Boolean Constraints: 16418 variables and 180621 clauses
c Sum of weights = 107560
c A number of soft clauses remained = 690
c MRWTO encoding for Pseudo-Boolean Constraints
c sizeMax=2488
c No.0 Divisor=14	generated by pow1
c No.1 Divisor=14	generated by pow1
c No.2 Divisor=14	generated by pow1
c p0= 14	p1= 14	p2= 14	
c number of digits = 4
c linkingVar[0].size = 14, linkingVar[1].size = 14, linkingVar[2].size = 13, linkingVar[3].size = 1, 
c Pseudo-Boolean Constraints: 16418 variables and 180621 clauses
c Sum of weights = 107560
c A number of soft clauses remained = 690
c MRWTO encoding for Pseudo-Boolean Constraints
c sizeMax=2488
c No.0 Divisor=14	generated by pow1
c No.1 Divisor=14	generated by pow1
c No.2 Divisor=14	generated by pow1
c p0= 14	p1= 14	p2= 14	
c number of digits = 4
c linkingVar[0].size = 14, linkingVar[1].size = 14, linkingVar[2].size = 13, linkingVar[3].size = 1, 
c Pseudo-Boolean Constraints: 16418 variables and 180621 clauses
c Sum of weights = 107560
c A number of soft clauses remained = 690
c MRWTO encoding for Pseudo-Boolean Constraints
c sizeMax=2488
c No.0 Divisor=14	generated by pow1
c No.1 Divisor=14	generated by pow1
c No.2 Divisor=14	generated by pow1
c p0= 14	p1= 14	p2= 14	
c number of digits = 4
c linkingVar[0].size = 14, linkingVar[1].size = 14, linkingVar[2].size = 13, linkingVar[3].size = 1, 
c Pseudo-Boolean Constraints: 16418 variables and 180621 clauses
c last restart ## conflicts  :  67 2498 
o 1672 | cpuTime 0.187286 s
c last restart ## conflicts  :  1095 2030 
o 1277 | cpuTime 0.277754 s
c last restart ## conflicts  :  1082 1382 
o 990 | cpuTime 0.371991 s
c last restart ## conflicts  :  550 1206 
o 912 | cpuTime 0.812279 s
c last restart ## conflicts  :  157 1097 
o 905 | cpuTime 17.68 s
c last restart ## conflicts  :  186 903 
o 859 | cpuTime 18.8647 s
c last restart ## conflicts  :  512 1314 
o 810 | cpuTime 33.1029 s
c last restart ## conflicts  :  742 1322 
o 772 | cpuTime 41.7397 s
c last restart ## conflicts  :  1403 1004 
o 750 | cpuTime 3318.98 s
s UNKNOWN
c Search is stopped by a limit (maybe time-limit)
cr positiVarArr: [ | 27(1->24) | 32(1->2) | 78(1->21) | 96(1->12) | 134(2->23) | 160(3->22) | 165(4->1) | 202(5->10) | 217(6->1) | 247(7->1) | 279(8->6) | 316(9->16) | 344(10->17) | 357(11->3) | 394(12->13) | 417(13->9) | 443(14->8) | 482(15->20) | 488(16->1) | 535(17->19) | 550(18->7) | 585(19->15) | 611(20->14) | 635(21->11) | 669(22->18) | 682(23->4) | 710(24->5) | ]
cr the 1-th chain: [ 1->24->5->10->17->19->15->20->14->8->6->1 ] (#non-depot=10) {#cumul.=11}
cr the 2-th chain: [ 1->2->23->4->1 ] (#non-depot=3) {#cumul.=14}
cr the 3-th chain: [ 1->21->11->3->22->18->7->1 ] (#non-depot=6) {#cumul.=20}
cr the 4-th chain: [ 1->12->13->9->16->1 ] (#non-depot=4) {#cumul.=24}
c Latest Answer = 0 by 10 loops
c restarts              : 59888
c conflicts             : 23347667       (6493 /sec)
c decisions             : 51761455       (0.00 % random) (14396 /sec)
c propagations          : 17948173524    (4991737 /sec)
c conflict literals     : 1642137673     (42.64 % deleted)
c Memory used           : 428.00 MB
c CPU time              : 3595.58 s
